\ENCODING=ISO-8859-1
\Problem name: Configuration1

Minimize
 obj1: Obj
Subject To
 Objective:      Obj - 38.0788655293195 x#0#1#0 - 38.0788655293195 x#0#1#1
                 - 38.0788655293195 x#0#1#2 - 38.0788655293195 x#0#1#3
                 - 33.3016516106934 x#0#2#0 - 33.3016516106934 x#0#2#1
                 - 33.3016516106934 x#0#2#2 - 33.3016516106934 x#0#2#3
                 - 39.0512483795333 x#0#3#0 - 39.0512483795333 x#0#3#1
                 - 39.0512483795333 x#0#3#2 - 39.0512483795333 x#0#3#3
                 - 52 x#0#4#0 - 52 x#0#4#1 - 52 x#0#4#2 - 52 x#0#4#3
                 - 51.478150704935 x#0#5#0 - 51.478150704935 x#0#5#1
                 - 51.478150704935 x#0#5#2 - 51.478150704935 x#0#5#3
                 - 47.4341649025257 x#0#6#0 - 47.4341649025257 x#0#6#1
                 - 47.4341649025257 x#0#6#2 - 47.4341649025257 x#0#6#3
                 - 38.0788655293195 x#1#0#0 - 38.0788655293195 x#1#0#1
                 - 38.0788655293195 x#1#0#2 - 38.0788655293195 x#1#0#3
                 - 12.2065556157337 x#1#2#0 - 12.2065556157337 x#1#2#1
                 - 12.2065556157337 x#1#2#2 - 12.2065556157337 x#1#2#3
                 - 11.1803398874989 x#1#3#0 - 11.1803398874989 x#1#3#1
                 - 11.1803398874989 x#1#3#2 - 11.1803398874989 x#1#3#3
                 - 83.6301381082203 x#1#4#0 - 83.6301381082203 x#1#4#1
                 - 83.6301381082203 x#1#4#2 - 83.6301381082203 x#1#4#3
                 - 84.8528137423857 x#1#5#0 - 84.8528137423857 x#1#5#1
                 - 84.8528137423857 x#1#5#2 - 84.8528137423857 x#1#5#3
                 - 78.1024967590665 x#1#6#0 - 78.1024967590665 x#1#6#1
                 - 78.1024967590665 x#1#6#2 - 78.1024967590665 x#1#6#3
                 - 33.3016516106934 x#2#0#0 - 33.3016516106934 x#2#0#1
                 - 33.3016516106934 x#2#0#2 - 33.3016516106934 x#2#0#3
                 - 12.2065556157337 x#2#1#0 - 12.2065556157337 x#2#1#1
                 - 12.2065556157337 x#2#1#2 - 12.2065556157337 x#2#1#3
                 - 5.8309518948453 x#2#3#0 - 5.8309518948453 x#2#3#1
                 - 5.8309518948453 x#2#3#2 - 5.8309518948453 x#2#3#3
                 - 83.2165848854662 x#2#4#0 - 83.2165848854662 x#2#4#1
                 - 83.2165848854662 x#2#4#2 - 83.2165848854662 x#2#4#3
                 - 83.6002392341075 x#2#5#0 - 83.6002392341075 x#2#5#1
                 - 83.6002392341075 x#2#5#2 - 83.6002392341075 x#2#5#3
                 - 78.0320446995976 x#2#6#0 - 78.0320446995976 x#2#6#1
                 - 78.0320446995976 x#2#6#2 - 78.0320446995976 x#2#6#3
                 - 39.0512483795333 x#3#0#0 - 39.0512483795333 x#3#0#1
                 - 39.0512483795333 x#3#0#2 - 39.0512483795333 x#3#0#3
                 - 11.1803398874989 x#3#1#0 - 11.1803398874989 x#3#1#1
                 - 11.1803398874989 x#3#1#2 - 11.1803398874989 x#3#1#3
                 - 5.8309518948453 x#3#2#0 - 5.8309518948453 x#3#2#1
                 - 5.8309518948453 x#3#2#2 - 5.8309518948453 x#3#2#3
                 - 88.4816365128946 x#3#4#0 - 88.4816365128946 x#3#4#1
                 - 88.4816365128946 x#3#4#2 - 88.4816365128946 x#3#4#3
                 - 89.0224690738243 x#3#5#0 - 89.0224690738243 x#3#5#1
                 - 89.0224690738243 x#3#5#2 - 89.0224690738243 x#3#5#3
                 - 83.2165848854662 x#3#6#0 - 83.2165848854662 x#3#6#1
                 - 83.2165848854662 x#3#6#2 - 83.2165848854662 x#3#6#3
                 - 52 x#4#0#0 - 52 x#4#0#1 - 52 x#4#0#2 - 52 x#4#0#3
                 - 83.6301381082203 x#4#1#0 - 83.6301381082203 x#4#1#1
                 - 83.6301381082203 x#4#1#2 - 83.6301381082203 x#4#1#3
                 - 83.2165848854662 x#4#2#0 - 83.2165848854662 x#4#2#1
                 - 83.2165848854662 x#4#2#2 - 83.2165848854662 x#4#2#3
                 - 88.4816365128946 x#4#3#0 - 88.4816365128946 x#4#3#1
                 - 88.4816365128946 x#4#3#2 - 88.4816365128946 x#4#3#3
                 - 5.8309518948453 x#4#5#0 - 5.8309518948453 x#4#5#1
                 - 5.8309518948453 x#4#5#2 - 5.8309518948453 x#4#5#3
                 - 5.8309518948453 x#4#6#0 - 5.8309518948453 x#4#6#1
                 - 5.8309518948453 x#4#6#2 - 5.8309518948453 x#4#6#3
                 - 51.478150704935 x#5#0#0 - 51.478150704935 x#5#0#1
                 - 51.478150704935 x#5#0#2 - 51.478150704935 x#5#0#3
                 - 84.8528137423857 x#5#1#0 - 84.8528137423857 x#5#1#1
                 - 84.8528137423857 x#5#1#2 - 84.8528137423857 x#5#1#3
                 - 83.6002392341075 x#5#2#0 - 83.6002392341075 x#5#2#1
                 - 83.6002392341075 x#5#2#2 - 83.6002392341075 x#5#2#3
                 - 89.0224690738243 x#5#3#0 - 89.0224690738243 x#5#3#1
                 - 89.0224690738243 x#5#3#2 - 89.0224690738243 x#5#3#3
                 - 5.8309518948453 x#5#4#0 - 5.8309518948453 x#5#4#1
                 - 5.8309518948453 x#5#4#2 - 5.8309518948453 x#5#4#3
                 - 10 x#5#6#0 - 10 x#5#6#1 - 10 x#5#6#2 - 10 x#5#6#3
                 - 47.4341649025257 x#6#0#0 - 47.4341649025257 x#6#0#1
                 - 47.4341649025257 x#6#0#2 - 47.4341649025257 x#6#0#3
                 - 78.1024967590665 x#6#1#0 - 78.1024967590665 x#6#1#1
                 - 78.1024967590665 x#6#1#2 - 78.1024967590665 x#6#1#3
                 - 78.0320446995976 x#6#2#0 - 78.0320446995976 x#6#2#1
                 - 78.0320446995976 x#6#2#2 - 78.0320446995976 x#6#2#3
                 - 83.2165848854662 x#6#3#0 - 83.2165848854662 x#6#3#1
                 - 83.2165848854662 x#6#3#2 - 83.2165848854662 x#6#3#3
                 - 5.8309518948453 x#6#4#0 - 5.8309518948453 x#6#4#1
                 - 5.8309518948453 x#6#4#2 - 5.8309518948453 x#6#4#3
                 - 10 x#6#5#0 - 10 x#6#5#1 - 10 x#6#5#2 - 10 x#6#5#3  = 0
 Visited(1):     x#0#1#0 + x#0#1#1 + x#0#1#2 + x#0#1#3 + x#2#1#0 + x#2#1#1
                 + x#2#1#2 + x#2#1#3 + x#3#1#0 + x#3#1#1 + x#3#1#2 + x#3#1#3
                 + x#4#1#0 + x#4#1#1 + x#4#1#2 + x#4#1#3 + x#5#1#0 + x#5#1#1
                 + x#5#1#2 + x#5#1#3 + x#6#1#0 + x#6#1#1 + x#6#1#2 + x#6#1#3
                  = 1
 Visited(2):     x#0#2#0 + x#0#2#1 + x#0#2#2 + x#0#2#3 + x#1#2#0 + x#1#2#1
                 + x#1#2#2 + x#1#2#3 + x#3#2#0 + x#3#2#1 + x#3#2#2 + x#3#2#3
                 + x#4#2#0 + x#4#2#1 + x#4#2#2 + x#4#2#3 + x#5#2#0 + x#5#2#1
                 + x#5#2#2 + x#5#2#3 + x#6#2#0 + x#6#2#1 + x#6#2#2 + x#6#2#3
                  = 1
 Visited(3):     x#0#3#0 + x#0#3#1 + x#0#3#2 + x#0#3#3 + x#1#3#0 + x#1#3#1
                 + x#1#3#2 + x#1#3#3 + x#2#3#0 + x#2#3#1 + x#2#3#2 + x#2#3#3
                 + x#4#3#0 + x#4#3#1 + x#4#3#2 + x#4#3#3 + x#5#3#0 + x#5#3#1
                 + x#5#3#2 + x#5#3#3 + x#6#3#0 + x#6#3#1 + x#6#3#2 + x#6#3#3
                  = 1
 Visited(4):     x#0#4#0 + x#0#4#1 + x#0#4#2 + x#0#4#3 + x#1#4#0 + x#1#4#1
                 + x#1#4#2 + x#1#4#3 + x#2#4#0 + x#2#4#1 + x#2#4#2 + x#2#4#3
                 + x#3#4#0 + x#3#4#1 + x#3#4#2 + x#3#4#3 + x#5#4#0 + x#5#4#1
                 + x#5#4#2 + x#5#4#3 + x#6#4#0 + x#6#4#1 + x#6#4#2 + x#6#4#3
                  = 1
 Visited(5):     x#0#5#0 + x#0#5#1 + x#0#5#2 + x#0#5#3 + x#1#5#0 + x#1#5#1
                 + x#1#5#2 + x#1#5#3 + x#2#5#0 + x#2#5#1 + x#2#5#2 + x#2#5#3
                 + x#3#5#0 + x#3#5#1 + x#3#5#2 + x#3#5#3 + x#4#5#0 + x#4#5#1
                 + x#4#5#2 + x#4#5#3 + x#6#5#0 + x#6#5#1 + x#6#5#2 + x#6#5#3
                  = 1
 Visited(6):     x#0#6#0 + x#0#6#1 + x#0#6#2 + x#0#6#3 + x#1#6#0 + x#1#6#1
                 + x#1#6#2 + x#1#6#3 + x#2#6#0 + x#2#6#1 + x#2#6#2 + x#2#6#3
                 + x#3#6#0 + x#3#6#1 + x#3#6#2 + x#3#6#3 + x#4#6#0 + x#4#6#1
                 + x#4#6#2 + x#4#6#3 + x#5#6#0 + x#5#6#1 + x#5#6#2 + x#5#6#3
                  = 1
 FlowCons(1)(0): - x#0#1#0 + x#1#0#0 + x#1#2#0 + x#1#3#0 + x#1#4#0 + x#1#5#0
                 + x#1#6#0 - x#2#1#0 - x#3#1#0 - x#4#1#0 - x#5#1#0 - x#6#1#0
                  = 0
 FlowCons(1)(1): - x#0#1#1 + x#1#0#1 + x#1#2#1 + x#1#3#1 + x#1#4#1 + x#1#5#1
                 + x#1#6#1 - x#2#1#1 - x#3#1#1 - x#4#1#1 - x#5#1#1 - x#6#1#1
                  = 0
 FlowCons(1)(2): - x#0#1#2 + x#1#0#2 + x#1#2#2 + x#1#3#2 + x#1#4#2 + x#1#5#2
                 + x#1#6#2 - x#2#1#2 - x#3#1#2 - x#4#1#2 - x#5#1#2 - x#6#1#2
                  = 0
 FlowCons(1)(3): - x#0#1#3 + x#1#0#3 + x#1#2#3 + x#1#3#3 + x#1#4#3 + x#1#5#3
                 + x#1#6#3 - x#2#1#3 - x#3#1#3 - x#4#1#3 - x#5#1#3 - x#6#1#3
                  = 0
 FlowCons(2)(0): - x#0#2#0 - x#1#2#0 + x#2#0#0 + x#2#1#0 + x#2#3#0 + x#2#4#0
                 + x#2#5#0 + x#2#6#0 - x#3#2#0 - x#4#2#0 - x#5#2#0 - x#6#2#0
                  = 0
 FlowCons(2)(1): - x#0#2#1 - x#1#2#1 + x#2#0#1 + x#2#1#1 + x#2#3#1 + x#2#4#1
                 + x#2#5#1 + x#2#6#1 - x#3#2#1 - x#4#2#1 - x#5#2#1 - x#6#2#1
                  = 0
 FlowCons(2)(2): - x#0#2#2 - x#1#2#2 + x#2#0#2 + x#2#1#2 + x#2#3#2 + x#2#4#2
                 + x#2#5#2 + x#2#6#2 - x#3#2#2 - x#4#2#2 - x#5#2#2 - x#6#2#2
                  = 0
 FlowCons(2)(3): - x#0#2#3 - x#1#2#3 + x#2#0#3 + x#2#1#3 + x#2#3#3 + x#2#4#3
                 + x#2#5#3 + x#2#6#3 - x#3#2#3 - x#4#2#3 - x#5#2#3 - x#6#2#3
                  = 0
 FlowCons(3)(0): - x#0#3#0 - x#1#3#0 - x#2#3#0 + x#3#0#0 + x#3#1#0 + x#3#2#0
                 + x#3#4#0 + x#3#5#0 + x#3#6#0 - x#4#3#0 - x#5#3#0 - x#6#3#0
                  = 0
 FlowCons(3)(1): - x#0#3#1 - x#1#3#1 - x#2#3#1 + x#3#0#1 + x#3#1#1 + x#3#2#1
                 + x#3#4#1 + x#3#5#1 + x#3#6#1 - x#4#3#1 - x#5#3#1 - x#6#3#1
                  = 0
 FlowCons(3)(2): - x#0#3#2 - x#1#3#2 - x#2#3#2 + x#3#0#2 + x#3#1#2 + x#3#2#2
                 + x#3#4#2 + x#3#5#2 + x#3#6#2 - x#4#3#2 - x#5#3#2 - x#6#3#2
                  = 0
 FlowCons(3)(3): - x#0#3#3 - x#1#3#3 - x#2#3#3 + x#3#0#3 + x#3#1#3 + x#3#2#3
                 + x#3#4#3 + x#3#5#3 + x#3#6#3 - x#4#3#3 - x#5#3#3 - x#6#3#3
                  = 0
 FlowCons(4)(0): - x#0#4#0 - x#1#4#0 - x#2#4#0 - x#3#4#0 + x#4#0#0 + x#4#1#0
                 + x#4#2#0 + x#4#3#0 + x#4#5#0 + x#4#6#0 - x#5#4#0 - x#6#4#0
                  = 0
 FlowCons(4)(1): - x#0#4#1 - x#1#4#1 - x#2#4#1 - x#3#4#1 + x#4#0#1 + x#4#1#1
                 + x#4#2#1 + x#4#3#1 + x#4#5#1 + x#4#6#1 - x#5#4#1 - x#6#4#1
                  = 0
 FlowCons(4)(2): - x#0#4#2 - x#1#4#2 - x#2#4#2 - x#3#4#2 + x#4#0#2 + x#4#1#2
                 + x#4#2#2 + x#4#3#2 + x#4#5#2 + x#4#6#2 - x#5#4#2 - x#6#4#2
                  = 0
 FlowCons(4)(3): - x#0#4#3 - x#1#4#3 - x#2#4#3 - x#3#4#3 + x#4#0#3 + x#4#1#3
                 + x#4#2#3 + x#4#3#3 + x#4#5#3 + x#4#6#3 - x#5#4#3 - x#6#4#3
                  = 0
 FlowCons(5)(0): - x#0#5#0 - x#1#5#0 - x#2#5#0 - x#3#5#0 - x#4#5#0 + x#5#0#0
                 + x#5#1#0 + x#5#2#0 + x#5#3#0 + x#5#4#0 + x#5#6#0 - x#6#5#0
                  = 0
 FlowCons(5)(1): - x#0#5#1 - x#1#5#1 - x#2#5#1 - x#3#5#1 - x#4#5#1 + x#5#0#1
                 + x#5#1#1 + x#5#2#1 + x#5#3#1 + x#5#4#1 + x#5#6#1 - x#6#5#1
                  = 0
 FlowCons(5)(2): - x#0#5#2 - x#1#5#2 - x#2#5#2 - x#3#5#2 - x#4#5#2 + x#5#0#2
                 + x#5#1#2 + x#5#2#2 + x#5#3#2 + x#5#4#2 + x#5#6#2 - x#6#5#2
                  = 0
 FlowCons(5)(3): - x#0#5#3 - x#1#5#3 - x#2#5#3 - x#3#5#3 - x#4#5#3 + x#5#0#3
                 + x#5#1#3 + x#5#2#3 + x#5#3#3 + x#5#4#3 + x#5#6#3 - x#6#5#3
                  = 0
 FlowCons(6)(0): - x#0#6#0 - x#1#6#0 - x#2#6#0 - x#3#6#0 - x#4#6#0 - x#5#6#0
                 + x#6#0#0 + x#6#1#0 + x#6#2#0 + x#6#3#0 + x#6#4#0 + x#6#5#0
                  = 0
 FlowCons(6)(1): - x#0#6#1 - x#1#6#1 - x#2#6#1 - x#3#6#1 - x#4#6#1 - x#5#6#1
                 + x#6#0#1 + x#6#1#1 + x#6#2#1 + x#6#3#1 + x#6#4#1 + x#6#5#1
                  = 0
 FlowCons(6)(2): - x#0#6#2 - x#1#6#2 - x#2#6#2 - x#3#6#2 - x#4#6#2 - x#5#6#2
                 + x#6#0#2 + x#6#1#2 + x#6#2#2 + x#6#3#2 + x#6#4#2 + x#6#5#2
                  = 0
 FlowCons(6)(3): - x#0#6#3 - x#1#6#3 - x#2#6#3 - x#3#6#3 - x#4#6#3 - x#5#6#3
                 + x#6#0#3 + x#6#1#3 + x#6#2#3 + x#6#3#3 + x#6#4#3 + x#6#5#3
                  = 0
 Capacity(0):    20 x#1#2#0 + 30 x#1#3#0 + 40 x#1#4#0 + 50 x#1#5#0 + 60 x#1#6#0
                 + 10 x#2#1#0 + 30 x#2#3#0 + 40 x#2#4#0 + 50 x#2#5#0
                 + 60 x#2#6#0 + 10 x#3#1#0 + 20 x#3#2#0 + 40 x#3#4#0
                 + 50 x#3#5#0 + 60 x#3#6#0 + 10 x#4#1#0 + 20 x#4#2#0
                 + 30 x#4#3#0 + 50 x#4#5#0 + 60 x#4#6#0 + 10 x#5#1#0
                 + 20 x#5#2#0 + 30 x#5#3#0 + 40 x#5#4#0 + 60 x#5#6#0
                 + 10 x#6#1#0 + 20 x#6#2#0 + 30 x#6#3#0 + 40 x#6#4#0
                 + 50 x#6#5#0 <= 80
 Capacity(1):    20 x#1#2#1 + 30 x#1#3#1 + 40 x#1#4#1 + 50 x#1#5#1 + 60 x#1#6#1
                 + 10 x#2#1#1 + 30 x#2#3#1 + 40 x#2#4#1 + 50 x#2#5#1
                 + 60 x#2#6#1 + 10 x#3#1#1 + 20 x#3#2#1 + 40 x#3#4#1
                 + 50 x#3#5#1 + 60 x#3#6#1 + 10 x#4#1#1 + 20 x#4#2#1
                 + 30 x#4#3#1 + 50 x#4#5#1 + 60 x#4#6#1 + 10 x#5#1#1
                 + 20 x#5#2#1 + 30 x#5#3#1 + 40 x#5#4#1 + 60 x#5#6#1
                 + 10 x#6#1#1 + 20 x#6#2#1 + 30 x#6#3#1 + 40 x#6#4#1
                 + 50 x#6#5#1 <= 80
 Capacity(2):    20 x#1#2#2 + 30 x#1#3#2 + 40 x#1#4#2 + 50 x#1#5#2 + 60 x#1#6#2
                 + 10 x#2#1#2 + 30 x#2#3#2 + 40 x#2#4#2 + 50 x#2#5#2
                 + 60 x#2#6#2 + 10 x#3#1#2 + 20 x#3#2#2 + 40 x#3#4#2
                 + 50 x#3#5#2 + 60 x#3#6#2 + 10 x#4#1#2 + 20 x#4#2#2
                 + 30 x#4#3#2 + 50 x#4#5#2 + 60 x#4#6#2 + 10 x#5#1#2
                 + 20 x#5#2#2 + 30 x#5#3#2 + 40 x#5#4#2 + 60 x#5#6#2
                 + 10 x#6#1#2 + 20 x#6#2#2 + 30 x#6#3#2 + 40 x#6#4#2
                 + 50 x#6#5#2 <= 80
 Capacity(3):    20 x#1#2#3 + 30 x#1#3#3 + 40 x#1#4#3 + 50 x#1#5#3 + 60 x#1#6#3
                 + 10 x#2#1#3 + 30 x#2#3#3 + 40 x#2#4#3 + 50 x#2#5#3
                 + 60 x#2#6#3 + 10 x#3#1#3 + 20 x#3#2#3 + 40 x#3#4#3
                 + 50 x#3#5#3 + 60 x#3#6#3 + 10 x#4#1#3 + 20 x#4#2#3
                 + 30 x#4#3#3 + 50 x#4#5#3 + 60 x#4#6#3 + 10 x#5#1#3
                 + 20 x#5#2#3 + 30 x#5#3#3 + 40 x#5#4#3 + 60 x#5#6#3
                 + 10 x#6#1#3 + 20 x#6#2#3 + 30 x#6#3#3 + 40 x#6#4#3
                 + 50 x#6#5#3 <= 80
 Capac(0):       x#0#1#0 + x#0#2#0 + x#0#3#0 + x#0#4#0 + x#0#5#0 + x#0#6#0 <= 1
 Capac(1):       x#0#1#1 + x#0#2#1 + x#0#3#1 + x#0#4#1 + x#0#5#1 + x#0#6#1 <= 1
 Capac(2):       x#0#1#2 + x#0#2#2 + x#0#3#2 + x#0#4#2 + x#0#5#2 + x#0#6#2 <= 1
 Capac(3):       x#0#1#3 + x#0#2#3 + x#0#3#3 + x#0#4#3 + x#0#5#3 + x#0#6#3 <= 1
 CargoMax(1)(0): U(1)(0) <= 80
 CargoMax(1)(1): U(1)(1) <= 80
 CargoMax(1)(2): U(1)(2) <= 80
 CargoMax(1)(3): U(1)(3) <= 80
 CargoMax(2)(0): U(2)(0) <= 80
 CargoMax(2)(1): U(2)(1) <= 80
 CargoMax(2)(2): U(2)(2) <= 80
 CargoMax(2)(3): U(2)(3) <= 80
 CargoMax(3)(0): U(3)(0) <= 80
 CargoMax(3)(1): U(3)(1) <= 80
 CargoMax(3)(2): U(3)(2) <= 80
 CargoMax(3)(3): U(3)(3) <= 80
 CargoMax(4)(0): U(4)(0) <= 80
 CargoMax(4)(1): U(4)(1) <= 80
 CargoMax(4)(2): U(4)(2) <= 80
 CargoMax(4)(3): U(4)(3) <= 80
 CargoMax(5)(0): U(5)(0) <= 80
 CargoMax(5)(1): U(5)(1) <= 80
 CargoMax(5)(2): U(5)(2) <= 80
 CargoMax(5)(3): U(5)(3) <= 80
 CargoMax(6)(0): U(6)(0) <= 80
 CargoMax(6)(1): U(6)(1) <= 80
 CargoMax(6)(2): U(6)(2) <= 80
 CargoMax(6)(3): U(6)(3) <= 80
 SE#0#1#0:       80 x#1#2#0 + U(1)(0) - U(2)(0) <= 60
 SE#0#1#1:       80 x#1#2#1 + U(1)(1) - U(2)(1) <= 60
 SE#0#1#2:       80 x#1#2#2 + U(1)(2) - U(2)(2) <= 60
 SE#0#1#3:       80 x#1#2#3 + U(1)(3) - U(2)(3) <= 60
 SE#0#2#0:       80 x#1#3#0 + U(1)(0) - U(3)(0) <= 50
 SE#0#2#1:       80 x#1#3#1 + U(1)(1) - U(3)(1) <= 50
 SE#0#2#2:       80 x#1#3#2 + U(1)(2) - U(3)(2) <= 50
 SE#0#2#3:       80 x#1#3#3 + U(1)(3) - U(3)(3) <= 50
 SE#0#3#0:       80 x#1#4#0 + U(1)(0) - U(4)(0) <= 40
 SE#0#3#1:       80 x#1#4#1 + U(1)(1) - U(4)(1) <= 40
 SE#0#3#2:       80 x#1#4#2 + U(1)(2) - U(4)(2) <= 40
 SE#0#3#3:       80 x#1#4#3 + U(1)(3) - U(4)(3) <= 40
 SE#0#4#0:       80 x#1#5#0 + U(1)(0) - U(5)(0) <= 30
 SE#0#4#1:       80 x#1#5#1 + U(1)(1) - U(5)(1) <= 30
 SE#0#4#2:       80 x#1#5#2 + U(1)(2) - U(5)(2) <= 30
 SE#0#4#3:       80 x#1#5#3 + U(1)(3) - U(5)(3) <= 30
 SE#0#5#0:       80 x#1#6#0 + U(1)(0) - U(6)(0) <= 20
 SE#0#5#1:       80 x#1#6#1 + U(1)(1) - U(6)(1) <= 20
 SE#0#5#2:       80 x#1#6#2 + U(1)(2) - U(6)(2) <= 20
 SE#0#5#3:       80 x#1#6#3 + U(1)(3) - U(6)(3) <= 20
 SE#1#0#0:       80 x#2#1#0 - U(1)(0) + U(2)(0) <= 70
 SE#1#0#1:       80 x#2#1#1 - U(1)(1) + U(2)(1) <= 70
 SE#1#0#2:       80 x#2#1#2 - U(1)(2) + U(2)(2) <= 70
 SE#1#0#3:       80 x#2#1#3 - U(1)(3) + U(2)(3) <= 70
 SE#1#2#0:       80 x#2#3#0 + U(2)(0) - U(3)(0) <= 50
 SE#1#2#1:       80 x#2#3#1 + U(2)(1) - U(3)(1) <= 50
 SE#1#2#2:       80 x#2#3#2 + U(2)(2) - U(3)(2) <= 50
 SE#1#2#3:       80 x#2#3#3 + U(2)(3) - U(3)(3) <= 50
 SE#1#3#0:       80 x#2#4#0 + U(2)(0) - U(4)(0) <= 40
 SE#1#3#1:       80 x#2#4#1 + U(2)(1) - U(4)(1) <= 40
 SE#1#3#2:       80 x#2#4#2 + U(2)(2) - U(4)(2) <= 40
 SE#1#3#3:       80 x#2#4#3 + U(2)(3) - U(4)(3) <= 40
 SE#1#4#0:       80 x#2#5#0 + U(2)(0) - U(5)(0) <= 30
 SE#1#4#1:       80 x#2#5#1 + U(2)(1) - U(5)(1) <= 30
 SE#1#4#2:       80 x#2#5#2 + U(2)(2) - U(5)(2) <= 30
 SE#1#4#3:       80 x#2#5#3 + U(2)(3) - U(5)(3) <= 30
 SE#1#5#0:       80 x#2#6#0 + U(2)(0) - U(6)(0) <= 20
 SE#1#5#1:       80 x#2#6#1 + U(2)(1) - U(6)(1) <= 20
 SE#1#5#2:       80 x#2#6#2 + U(2)(2) - U(6)(2) <= 20
 SE#1#5#3:       80 x#2#6#3 + U(2)(3) - U(6)(3) <= 20
 SE#2#0#0:       80 x#3#1#0 - U(1)(0) + U(3)(0) <= 70
 SE#2#0#1:       80 x#3#1#1 - U(1)(1) + U(3)(1) <= 70
 SE#2#0#2:       80 x#3#1#2 - U(1)(2) + U(3)(2) <= 70
 SE#2#0#3:       80 x#3#1#3 - U(1)(3) + U(3)(3) <= 70
 SE#2#1#0:       80 x#3#2#0 - U(2)(0) + U(3)(0) <= 60
 SE#2#1#1:       80 x#3#2#1 - U(2)(1) + U(3)(1) <= 60
 SE#2#1#2:       80 x#3#2#2 - U(2)(2) + U(3)(2) <= 60
 SE#2#1#3:       80 x#3#2#3 - U(2)(3) + U(3)(3) <= 60
 SE#2#3#0:       80 x#3#4#0 + U(3)(0) - U(4)(0) <= 40
 SE#2#3#1:       80 x#3#4#1 + U(3)(1) - U(4)(1) <= 40
 SE#2#3#2:       80 x#3#4#2 + U(3)(2) - U(4)(2) <= 40
 SE#2#3#3:       80 x#3#4#3 + U(3)(3) - U(4)(3) <= 40
 SE#2#4#0:       80 x#3#5#0 + U(3)(0) - U(5)(0) <= 30
 SE#2#4#1:       80 x#3#5#1 + U(3)(1) - U(5)(1) <= 30
 SE#2#4#2:       80 x#3#5#2 + U(3)(2) - U(5)(2) <= 30
 SE#2#4#3:       80 x#3#5#3 + U(3)(3) - U(5)(3) <= 30
 SE#3#0#0:       80 x#4#1#0 - U(1)(0) + U(4)(0) <= 70
 SE#3#0#1:       80 x#4#1#1 - U(1)(1) + U(4)(1) <= 70
 SE#3#0#2:       80 x#4#1#2 - U(1)(2) + U(4)(2) <= 70
 SE#3#0#3:       80 x#4#1#3 - U(1)(3) + U(4)(3) <= 70
 SE#3#1#0:       80 x#4#2#0 - U(2)(0) + U(4)(0) <= 60
 SE#3#1#1:       80 x#4#2#1 - U(2)(1) + U(4)(1) <= 60
 SE#3#1#2:       80 x#4#2#2 - U(2)(2) + U(4)(2) <= 60
 SE#3#1#3:       80 x#4#2#3 - U(2)(3) + U(4)(3) <= 60
 SE#3#2#0:       80 x#4#3#0 - U(3)(0) + U(4)(0) <= 50
 SE#3#2#1:       80 x#4#3#1 - U(3)(1) + U(4)(1) <= 50
 SE#3#2#2:       80 x#4#3#2 - U(3)(2) + U(4)(2) <= 50
 SE#3#2#3:       80 x#4#3#3 - U(3)(3) + U(4)(3) <= 50
 SE#4#0#0:       80 x#5#1#0 - U(1)(0) + U(5)(0) <= 70
 SE#4#0#1:       80 x#5#1#1 - U(1)(1) + U(5)(1) <= 70
 SE#4#0#2:       80 x#5#1#2 - U(1)(2) + U(5)(2) <= 70
 SE#4#0#3:       80 x#5#1#3 - U(1)(3) + U(5)(3) <= 70
 SE#4#1#0:       80 x#5#2#0 - U(2)(0) + U(5)(0) <= 60
 SE#4#1#1:       80 x#5#2#1 - U(2)(1) + U(5)(1) <= 60
 SE#4#1#2:       80 x#5#2#2 - U(2)(2) + U(5)(2) <= 60
 SE#4#1#3:       80 x#5#2#3 - U(2)(3) + U(5)(3) <= 60
 SE#4#2#0:       80 x#5#3#0 - U(3)(0) + U(5)(0) <= 50
 SE#4#2#1:       80 x#5#3#1 - U(3)(1) + U(5)(1) <= 50
 SE#4#2#2:       80 x#5#3#2 - U(3)(2) + U(5)(2) <= 50
 SE#4#2#3:       80 x#5#3#3 - U(3)(3) + U(5)(3) <= 50
 SE#5#0#0:       80 x#6#1#0 - U(1)(0) + U(6)(0) <= 70
 SE#5#0#1:       80 x#6#1#1 - U(1)(1) + U(6)(1) <= 70
 SE#5#0#2:       80 x#6#1#2 - U(1)(2) + U(6)(2) <= 70
 SE#5#0#3:       80 x#6#1#3 - U(1)(3) + U(6)(3) <= 70
 SE#5#1#0:       80 x#6#2#0 - U(2)(0) + U(6)(0) <= 60
 SE#5#1#1:       80 x#6#2#1 - U(2)(1) + U(6)(1) <= 60
 SE#5#1#2:       80 x#6#2#2 - U(2)(2) + U(6)(2) <= 60
 SE#5#1#3:       80 x#6#2#3 - U(2)(3) + U(6)(3) <= 60
Bounds
      Obj Free
 0 <= x#0#1#0 <= 1
 0 <= x#0#1#1 <= 1
 0 <= x#0#1#2 <= 1
 0 <= x#0#1#3 <= 1
 0 <= x#0#2#0 <= 1
 0 <= x#0#2#1 <= 1
 0 <= x#0#2#2 <= 1
 0 <= x#0#2#3 <= 1
 0 <= x#0#3#0 <= 1
 0 <= x#0#3#1 <= 1
 0 <= x#0#3#2 <= 1
 0 <= x#0#3#3 <= 1
 0 <= x#0#4#0 <= 1
 0 <= x#0#4#1 <= 1
 0 <= x#0#4#2 <= 1
 0 <= x#0#4#3 <= 1
 0 <= x#0#5#0 <= 1
 0 <= x#0#5#1 <= 1
 0 <= x#0#5#2 <= 1
 0 <= x#0#5#3 <= 1
 0 <= x#0#6#0 <= 1
 0 <= x#0#6#1 <= 1
 0 <= x#0#6#2 <= 1
 0 <= x#0#6#3 <= 1
 0 <= x#1#0#0 <= 1
 0 <= x#1#0#1 <= 1
 0 <= x#1#0#2 <= 1
 0 <= x#1#0#3 <= 1
 0 <= x#1#2#0 <= 1
 0 <= x#1#2#1 <= 1
 0 <= x#1#2#2 <= 1
 0 <= x#1#2#3 <= 1
 0 <= x#1#3#0 <= 1
 0 <= x#1#3#1 <= 1
 0 <= x#1#3#2 <= 1
 0 <= x#1#3#3 <= 1
 0 <= x#1#4#0 <= 1
 0 <= x#1#4#1 <= 1
 0 <= x#1#4#2 <= 1
 0 <= x#1#4#3 <= 1
 0 <= x#1#5#0 <= 1
 0 <= x#1#5#1 <= 1
 0 <= x#1#5#2 <= 1
 0 <= x#1#5#3 <= 1
 0 <= x#1#6#0 <= 1
 0 <= x#1#6#1 <= 1
 0 <= x#1#6#2 <= 1
 0 <= x#1#6#3 <= 1
 0 <= x#2#0#0 <= 1
 0 <= x#2#0#1 <= 1
 0 <= x#2#0#2 <= 1
 0 <= x#2#0#3 <= 1
 0 <= x#2#1#0 <= 1
 0 <= x#2#1#1 <= 1
 0 <= x#2#1#2 <= 1
 0 <= x#2#1#3 <= 1
 0 <= x#2#3#0 <= 1
 0 <= x#2#3#1 <= 1
 0 <= x#2#3#2 <= 1
 0 <= x#2#3#3 <= 1
 0 <= x#2#4#0 <= 1
 0 <= x#2#4#1 <= 1
 0 <= x#2#4#2 <= 1
 0 <= x#2#4#3 <= 1
 0 <= x#2#5#0 <= 1
 0 <= x#2#5#1 <= 1
 0 <= x#2#5#2 <= 1
 0 <= x#2#5#3 <= 1
 0 <= x#2#6#0 <= 1
 0 <= x#2#6#1 <= 1
 0 <= x#2#6#2 <= 1
 0 <= x#2#6#3 <= 1
 0 <= x#3#0#0 <= 1
 0 <= x#3#0#1 <= 1
 0 <= x#3#0#2 <= 1
 0 <= x#3#0#3 <= 1
 0 <= x#3#1#0 <= 1
 0 <= x#3#1#1 <= 1
 0 <= x#3#1#2 <= 1
 0 <= x#3#1#3 <= 1
 0 <= x#3#2#0 <= 1
 0 <= x#3#2#1 <= 1
 0 <= x#3#2#2 <= 1
 0 <= x#3#2#3 <= 1
 0 <= x#3#4#0 <= 1
 0 <= x#3#4#1 <= 1
 0 <= x#3#4#2 <= 1
 0 <= x#3#4#3 <= 1
 0 <= x#3#5#0 <= 1
 0 <= x#3#5#1 <= 1
 0 <= x#3#5#2 <= 1
 0 <= x#3#5#3 <= 1
 0 <= x#3#6#0 <= 1
 0 <= x#3#6#1 <= 1
 0 <= x#3#6#2 <= 1
 0 <= x#3#6#3 <= 1
 0 <= x#4#0#0 <= 1
 0 <= x#4#0#1 <= 1
 0 <= x#4#0#2 <= 1
 0 <= x#4#0#3 <= 1
 0 <= x#4#1#0 <= 1
 0 <= x#4#1#1 <= 1
 0 <= x#4#1#2 <= 1
 0 <= x#4#1#3 <= 1
 0 <= x#4#2#0 <= 1
 0 <= x#4#2#1 <= 1
 0 <= x#4#2#2 <= 1
 0 <= x#4#2#3 <= 1
 0 <= x#4#3#0 <= 1
 0 <= x#4#3#1 <= 1
 0 <= x#4#3#2 <= 1
 0 <= x#4#3#3 <= 1
 0 <= x#4#5#0 <= 1
 0 <= x#4#5#1 <= 1
 0 <= x#4#5#2 <= 1
 0 <= x#4#5#3 <= 1
 0 <= x#4#6#0 <= 1
 0 <= x#4#6#1 <= 1
 0 <= x#4#6#2 <= 1
 0 <= x#4#6#3 <= 1
 0 <= x#5#0#0 <= 1
 0 <= x#5#0#1 <= 1
 0 <= x#5#0#2 <= 1
 0 <= x#5#0#3 <= 1
 0 <= x#5#1#0 <= 1
 0 <= x#5#1#1 <= 1
 0 <= x#5#1#2 <= 1
 0 <= x#5#1#3 <= 1
 0 <= x#5#2#0 <= 1
 0 <= x#5#2#1 <= 1
 0 <= x#5#2#2 <= 1
 0 <= x#5#2#3 <= 1
 0 <= x#5#3#0 <= 1
 0 <= x#5#3#1 <= 1
 0 <= x#5#3#2 <= 1
 0 <= x#5#3#3 <= 1
 0 <= x#5#4#0 <= 1
 0 <= x#5#4#1 <= 1
 0 <= x#5#4#2 <= 1
 0 <= x#5#4#3 <= 1
 0 <= x#5#6#0 <= 1
 0 <= x#5#6#1 <= 1
 0 <= x#5#6#2 <= 1
 0 <= x#5#6#3 <= 1
 0 <= x#6#0#0 <= 1
 0 <= x#6#0#1 <= 1
 0 <= x#6#0#2 <= 1
 0 <= x#6#0#3 <= 1
 0 <= x#6#1#0 <= 1
 0 <= x#6#1#1 <= 1
 0 <= x#6#1#2 <= 1
 0 <= x#6#1#3 <= 1
 0 <= x#6#2#0 <= 1
 0 <= x#6#2#1 <= 1
 0 <= x#6#2#2 <= 1
 0 <= x#6#2#3 <= 1
 0 <= x#6#3#0 <= 1
 0 <= x#6#3#1 <= 1
 0 <= x#6#3#2 <= 1
 0 <= x#6#3#3 <= 1
 0 <= x#6#4#0 <= 1
 0 <= x#6#4#1 <= 1
 0 <= x#6#4#2 <= 1
 0 <= x#6#4#3 <= 1
 0 <= x#6#5#0 <= 1
 0 <= x#6#5#1 <= 1
 0 <= x#6#5#2 <= 1
 0 <= x#6#5#3 <= 1
Binaries
 x#0#1#0  x#0#1#1  x#0#1#2  x#0#1#3  x#0#2#0  x#0#2#1  x#0#2#2  x#0#2#3 
 x#0#3#0  x#0#3#1  x#0#3#2  x#0#3#3  x#0#4#0  x#0#4#1  x#0#4#2  x#0#4#3 
 x#0#5#0  x#0#5#1  x#0#5#2  x#0#5#3  x#0#6#0  x#0#6#1  x#0#6#2  x#0#6#3 
 x#1#0#0  x#1#0#1  x#1#0#2  x#1#0#3  x#1#2#0  x#1#2#1  x#1#2#2  x#1#2#3 
 x#1#3#0  x#1#3#1  x#1#3#2  x#1#3#3  x#1#4#0  x#1#4#1  x#1#4#2  x#1#4#3 
 x#1#5#0  x#1#5#1  x#1#5#2  x#1#5#3  x#1#6#0  x#1#6#1  x#1#6#2  x#1#6#3 
 x#2#0#0  x#2#0#1  x#2#0#2  x#2#0#3  x#2#1#0  x#2#1#1  x#2#1#2  x#2#1#3 
 x#2#3#0  x#2#3#1  x#2#3#2  x#2#3#3  x#2#4#0  x#2#4#1  x#2#4#2  x#2#4#3 
 x#2#5#0  x#2#5#1  x#2#5#2  x#2#5#3  x#2#6#0  x#2#6#1  x#2#6#2  x#2#6#3 
 x#3#0#0  x#3#0#1  x#3#0#2  x#3#0#3  x#3#1#0  x#3#1#1  x#3#1#2  x#3#1#3 
 x#3#2#0  x#3#2#1  x#3#2#2  x#3#2#3  x#3#4#0  x#3#4#1  x#3#4#2  x#3#4#3 
 x#3#5#0  x#3#5#1  x#3#5#2  x#3#5#3  x#3#6#0  x#3#6#1  x#3#6#2  x#3#6#3 
 x#4#0#0  x#4#0#1  x#4#0#2  x#4#0#3  x#4#1#0  x#4#1#1  x#4#1#2  x#4#1#3 
 x#4#2#0  x#4#2#1  x#4#2#2  x#4#2#3  x#4#3#0  x#4#3#1  x#4#3#2  x#4#3#3 
 x#4#5#0  x#4#5#1  x#4#5#2  x#4#5#3  x#4#6#0  x#4#6#1  x#4#6#2  x#4#6#3 
 x#5#0#0  x#5#0#1  x#5#0#2  x#5#0#3  x#5#1#0  x#5#1#1  x#5#1#2  x#5#1#3 
 x#5#2#0  x#5#2#1  x#5#2#2  x#5#2#3  x#5#3#0  x#5#3#1  x#5#3#2  x#5#3#3 
 x#5#4#0  x#5#4#1  x#5#4#2  x#5#4#3  x#5#6#0  x#5#6#1  x#5#6#2  x#5#6#3 
 x#6#0#0  x#6#0#1  x#6#0#2  x#6#0#3  x#6#1#0  x#6#1#1  x#6#1#2  x#6#1#3 
 x#6#2#0  x#6#2#1  x#6#2#2  x#6#2#3  x#6#3#0  x#6#3#1  x#6#3#2  x#6#3#3 
 x#6#4#0  x#6#4#1  x#6#4#2  x#6#4#3  x#6#5#0  x#6#5#1  x#6#5#2  x#6#5#3 
End
